2025-12-04 14:11:21,476 - INFO - [Scaling] length 1197 → 1243
2025-12-04 14:11:21,695 - INFO - 🧮 参数显存统计（单位：MB）
2025-12-04 14:11:21,695 - INFO - [参数显存] euclidean 总计: 1.3297 MB
2025-12-04 14:11:21,695 - INFO - [参数显存] euclidean 长度=124: 0.0369 MB
2025-12-04 14:11:21,695 - INFO - [参数显存] euclidean 长度=248: 0.0738 MB
2025-12-04 14:11:21,695 - INFO - [参数显存] euclidean 长度=372: 0.1107 MB
2025-12-04 14:11:21,695 - INFO - [参数显存] euclidean 长度=496: 0.1476 MB
2025-12-04 14:11:21,695 - INFO - [参数显存] euclidean 长度=621: 0.1848 MB
2025-12-04 14:11:21,695 - INFO - [参数显存] euclidean 长度=745: 0.2217 MB
2025-12-04 14:11:21,695 - INFO - [参数显存] euclidean 长度=869: 0.2586 MB
2025-12-04 14:11:21,695 - INFO - [参数显存] euclidean 长度=994: 0.2958 MB
2025-12-04 14:11:21,695 - INFO - [参数显存] cosine 总计: 1.3297 MB
2025-12-04 14:11:21,695 - INFO - [参数显存] cosine 长度=124: 0.0369 MB
2025-12-04 14:11:21,695 - INFO - [参数显存] cosine 长度=248: 0.0738 MB
2025-12-04 14:11:21,695 - INFO - [参数显存] cosine 长度=372: 0.1107 MB
2025-12-04 14:11:21,695 - INFO - [参数显存] cosine 长度=496: 0.1476 MB
2025-12-04 14:11:21,695 - INFO - [参数显存] cosine 长度=621: 0.1848 MB
2025-12-04 14:11:21,695 - INFO - [参数显存] cosine 长度=745: 0.2217 MB
2025-12-04 14:11:21,695 - INFO - [参数显存] cosine 长度=869: 0.2586 MB
2025-12-04 14:11:21,695 - INFO - [参数显存] cosine 长度=994: 0.2958 MB
2025-12-04 14:11:21,695 - INFO - [参数显存] 模型参数总量: 1,192,876，显存: 4.5505 MB
2025-12-04 14:11:22,309 - INFO - 📌 第一个 epoch：默认所有模块使用 checkpoint
2025-12-04 14:11:23,496 - INFO - Epoch 1 completed in 1.192426 seconds
2025-12-04 14:11:24,121 - INFO - torch.cuda.max_memory_reserved() : 8.044921875
2025-12-04 14:11:24,122 - INFO - torch.cuda.max_memory_allocated() : 2.322099208831787
2025-12-04 14:11:24,741 - INFO - 
[🔁 拟合反向传播时间模型]
2025-12-04 14:11:24,742 - INFO - 总反向传播时间: 0.610864s
2025-12-04 14:11:24,742 - INFO - 拟合模型: backward_total ≈ 2 × (A + B) + b
2025-12-04 14:11:24,742 - INFO - A = 1.041151, B = 0.018460, b = -0.448747s
2025-12-04 14:11:24,766 - INFO - Set parameter LicenseID to value 2706656
2025-12-04 14:11:24,770 - INFO - Set parameter LogToConsole to value 1
2025-12-04 14:11:24,770 - INFO - Set parameter LogFile to value ""
2025-12-04 14:11:24,770 - INFO - Set parameter Threads to value 12
2025-12-04 14:11:24,770 - INFO - Set parameter TimeLimit to value 3600
2025-12-04 14:11:24,770 - INFO - Set parameter OptimalityTol to value 0.0001
2025-12-04 14:11:24,770 - INFO - Set parameter IntFeasTol to value 1e-05
2025-12-04 14:11:24,770 - INFO - Set parameter StartNodeLimit to value 10000000
2025-12-04 14:11:24,833 - INFO - Set parameter TimeLimit to value 3600
2025-12-04 14:11:24,833 - INFO - 
2025-12-04 14:11:24,833 - INFO - 
2025-12-04 14:11:24,833 - INFO - Restarting solve
2025-12-04 14:11:24,833 - INFO - 
2025-12-04 14:11:24,833 - INFO - 
2025-12-04 14:11:24,835 - INFO - Gurobi Optimizer version 12.0.3 build v12.0.3rc0 (linux64 - "Ubuntu 20.04.6 LTS")
2025-12-04 14:11:24,835 - INFO - 
2025-12-04 14:11:24,835 - INFO - CPU model: Intel(R) Xeon(R) Platinum 8260 CPU @ 2.40GHz, instruction set [SSE2|AVX|AVX2|AVX512]
2025-12-04 14:11:24,835 - INFO - Thread count: 48 physical cores, 96 logical processors, using up to 12 threads
2025-12-04 14:11:24,835 - INFO - 
2025-12-04 14:11:24,835 - INFO - Non-default parameters:
2025-12-04 14:11:24,835 - INFO - TimeLimit  3600
2025-12-04 14:11:24,835 - INFO - OptimalityTol  0.0001
2025-12-04 14:11:24,835 - INFO - StartNodeLimit  10000000
2025-12-04 14:11:24,835 - INFO - Threads  12
2025-12-04 14:11:24,835 - INFO - 
2025-12-04 14:11:24,835 - INFO - Optimize a model with 5603 rows, 3584 columns and 15200 nonzeros
2025-12-04 14:11:24,836 - INFO - Model fingerprint: 0x082a9058
2025-12-04 14:11:24,836 - INFO - Variable types: 1024 continuous, 2560 integer (2560 binary)
2025-12-04 14:11:24,836 - INFO - Coefficient statistics:
2025-12-04 14:11:24,836 - INFO -   Matrix range     [1e+00, 3e+15]
2025-12-04 14:11:24,836 - INFO -   Objective range  [4e+04, 2e+06]
2025-12-04 14:11:24,836 - INFO -   Bounds range     [1e+00, 2e+16]
2025-12-04 14:11:24,836 - INFO -   RHS range        [1e+00, 2e+16]
2025-12-04 14:11:24,836 - INFO - Warning: Model contains large matrix coefficient range
2025-12-04 14:11:24,836 - INFO - Warning: Model contains large rhs
2025-12-04 14:11:24,836 - INFO - Warning: Model contains large bounds
2025-12-04 14:11:24,836 - INFO -          Consider reformulating model or setting NumericFocus parameter
2025-12-04 14:11:24,836 - INFO -          to avoid numerical issues.
2025-12-04 14:11:24,850 - INFO - Presolve removed 4283 rows and 1964 columns
2025-12-04 14:11:24,850 - INFO - Presolve time: 0.01s
2025-12-04 14:11:24,850 - INFO - Presolved: 1320 rows, 1620 columns, 4514 nonzeros
2025-12-04 14:11:24,851 - INFO - Variable types: 0 continuous, 1620 integer (1095 binary)
2025-12-04 14:11:24,862 - INFO - 
2025-12-04 14:11:24,862 - INFO - Root relaxation: objective 2.804026e+07, 431 iterations, 0.00 seconds (0.00 work units)
2025-12-04 14:11:24,870 - INFO - 
2025-12-04 14:11:24,870 - INFO -     Nodes    |    Current Node    |     Objective Bounds      |     Work
2025-12-04 14:11:24,870 - INFO -  Expl Unexpl |  Obj  Depth IntInf | Incumbent    BestBd   Gap | It/Node Time
2025-12-04 14:11:24,870 - INFO - 
2025-12-04 14:11:24,870 - INFO -      0     0 2.8040e+07    0    3          - 2.8040e+07      -     -    0s
2025-12-04 14:11:24,897 - INFO - H    0     0                    4.205461e+07 2.8043e+07  33.3%     -    0s
2025-12-04 14:11:24,898 - INFO -      0     0 2.8074e+07    0    3 4.2055e+07 2.8074e+07  33.2%     -    0s
2025-12-04 14:11:24,912 - INFO -      0     0 2.8074e+07    0    3 4.2055e+07 2.8074e+07  33.2%     -    0s
2025-12-04 14:11:24,927 - INFO -      0     2 2.8074e+07    0    3 4.2055e+07 2.8074e+07  33.2%     -    0s
2025-12-04 14:11:24,930 - INFO - *    1     2               1    2.807424e+07 2.8074e+07  0.00%   1.0    0s
2025-12-04 14:11:24,930 - INFO - 
2025-12-04 14:11:24,930 - INFO - Cutting planes:
2025-12-04 14:11:24,930 - INFO -   GUB cover: 1
2025-12-04 14:11:24,931 - INFO - 
2025-12-04 14:11:24,931 - INFO - Explored 3 nodes (532 simplex iterations) in 0.10 seconds (0.05 work units)
2025-12-04 14:11:24,931 - INFO - Thread count was 12 (of 96 available processors)
2025-12-04 14:11:24,931 - INFO - 
2025-12-04 14:11:24,931 - INFO - Solution count 2: 2.80742e+07 4.20546e+07 
2025-12-04 14:11:24,931 - INFO - 
2025-12-04 14:11:24,931 - INFO - Optimal solution found (tolerance 1.00e-04)
2025-12-04 14:11:24,931 - INFO - Best objective 2.807424100000e+07, best bound 2.807424100000e+07, gap 0.0000%
2025-12-04 14:11:24,943 - INFO - 规划前的显存GB：18.0
2025-12-04 14:11:24,944 - INFO - 规划后的显存GB：16.31288433074951
2025-12-04 14:11:24,944 - INFO - 规划结果含有0，退出程序
